5
2147483647 12 3 45 6
78 2147483647 90 21 3
5 56 2147483647 23 98
12 6 8 2147483647 34
3 98 3 2 2147483647 



-  12 3  45 6
78 -  90 21 3
5  56 -  23 98
12  6  8 -  34
3  98  3 2  -


-  9  0  42 3
75 -  87 18 0
0  51 -  18 18
6  -  2  -  28
1  96 1  0  -